50
19550

558 139
51 340
158 832
752 738
990 667
439 60
476 283
293 11
900 32
70 650
432 530
805 861
617 367
74 791
837 370
964 493
678 722
831 386
663 995
509 837
627 892
23 748
803 734
4 470
438 98
325 700
62 733
297 646
256 780
981 170
462 743
847 40
26 861
740 441
591 315
572 425
972 369
18 312
236 342
504 496
392 744
309 301
222 730
881 654
806 218
528 794
19 783
56 403
309 492
492 860
